# specify m and n parameters' value
param m := 2 ;
param n := 3 ;

# first two columns represent indices, then follows actual value
param a :=
 1 1 2
 1 2 3
 1 3 5
 2 1 4
 2 2 2
 2 3 7
 ;

# first column represents an index, then follows actual value
param c:=
 1 30
 2 20
 3 50
 ;

# ...
param b :=
 1 4000
 2 6000
 ;

# ...
param d :=
 1 200
 2 200
 3 150
 ;